c description: Perfect Matching Principle on 
c generator: CNFgen (0.9.0)
c copyright: (C) 2012-2020 Massimo Lauria <massimo.lauria@uniroma1.it>
c url: https://massimolauria.net/cnfgen
c
p cnf 120 966
-1 -2 0
-1 -3 0
-1 -4 0
-1 -5 0
-1 -6 0
-1 -7 0
-1 -8 0
-1 -9 0
-2 -3 0
-2 -4 0
-2 -5 0
-2 -6 0
-2 -7 0
-2 -8 0
-2 -9 0
-3 -4 0
-3 -5 0
-3 -6 0
-3 -7 0
-3 -8 0
-3 -9 0
-4 -5 0
-4 -6 0
-4 -7 0
-4 -8 0
-4 -9 0
-5 -6 0
-5 -7 0
-5 -8 0
-5 -9 0
-6 -7 0
-6 -8 0
-6 -9 0
-7 -8 0
-7 -9 0
-8 -9 0
1 2 3 4 5 6 7 8 9 0
-1 -10 0
-1 -11 0
-1 -12 0
-1 -13 0
-1 -14 0
-1 -15 0
-1 -16 0
-10 -11 0
-10 -12 0
-10 -13 0
-10 -14 0
-10 -15 0
-10 -16 0
-11 -12 0
-11 -13 0
-11 -14 0
-11 -15 0
-11 -16 0
-12 -13 0
-12 -14 0
-12 -15 0
-12 -16 0
-13 -14 0
-13 -15 0
-13 -16 0
-14 -15 0
-14 -16 0
-15 -16 0
1 10 11 12 13 14 15 16 0
-17 -18 0
-17 -19 0
-17 -20 0
-17 -21 0
-17 -22 0
-17 -23 0
-17 -24 0
-17 -25 0
-17 -26 0
-17 -27 0
-18 -19 0
-18 -20 0
-18 -21 0
-18 -22 0
-18 -23 0
-18 -24 0
-18 -25 0
-18 -26 0
-18 -27 0
-19 -20 0
-19 -21 0
-19 -22 0
-19 -23 0
-19 -24 0
-19 -25 0
-19 -26 0
-19 -27 0
-20 -21 0
-20 -22 0
-20 -23 0
-20 -24 0
-20 -25 0
-20 -26 0
-20 -27 0
-21 -22 0
-21 -23 0
-21 -24 0
-21 -25 0
-21 -26 0
-21 -27 0
-22 -23 0
-22 -24 0
-22 -25 0
-22 -26 0
-22 -27 0
-23 -24 0
-23 -25 0
-23 -26 0
-23 -27 0
-24 -25 0
-24 -26 0
-24 -27 0
-25 -26 0
-25 -27 0
-26 -27 0
17 18 19 20 21 22 23 24 25 26 27 0
-28 -29 0
-28 -30 0
-28 -31 0
-28 -32 0
-29 -30 0
-29 -31 0
-29 -32 0
-30 -31 0
-30 -32 0
-31 -32 0
28 29 30 31 32 0
-2 -17 0
-2 -33 0
-2 -34 0
-2 -35 0
-2 -36 0
-2 -37 0
-2 -38 0
-2 -39 0
-2 -40 0
-2 -41 0
-2 -42 0
-17 -33 0
-17 -34 0
-17 -35 0
-17 -36 0
-17 -37 0
-17 -38 0
-17 -39 0
-17 -40 0
-17 -41 0
-17 -42 0
-33 -34 0
-33 -35 0
-33 -36 0
-33 -37 0
-33 -38 0
-33 -39 0
-33 -40 0
-33 -41 0
-33 -42 0
-34 -35 0
-34 -36 0
-34 -37 0
-34 -38 0
-34 -39 0
-34 -40 0
-34 -41 0
-34 -42 0
-35 -36 0
-35 -37 0
-35 -38 0
-35 -39 0
-35 -40 0
-35 -41 0
-35 -42 0
-36 -37 0
-36 -38 0
-36 -39 0
-36 -40 0
-36 -41 0
-36 -42 0
-37 -38 0
-37 -39 0
-37 -40 0
-37 -41 0
-37 -42 0
-38 -39 0
-38 -40 0
-38 -41 0
-38 -42 0
-39 -40 0
-39 -41 0
-39 -42 0
-40 -41 0
-40 -42 0
-41 -42 0
2 17 33 34 35 36 37 38 39 40 41 42 0
-10 -43 0
-10 -44 0
-10 -45 0
-10 -46 0
-10 -47 0
-10 -48 0
-43 -44 0
-43 -45 0
-43 -46 0
-43 -47 0
-43 -48 0
-44 -45 0
-44 -46 0
-44 -47 0
-44 -48 0
-45 -46 0
-45 -47 0
-45 -48 0
-46 -47 0
-46 -48 0
-47 -48 0
10 43 44 45 46 47 48 0
-3 -11 0
-3 -33 0
-3 -49 0
-3 -50 0
-3 -51 0
-3 -52 0
-3 -53 0
-3 -54 0
-11 -33 0
-11 -49 0
-11 -50 0
-11 -51 0
-11 -52 0
-11 -53 0
-11 -54 0
-33 -49 0
-33 -50 0
-33 -51 0
-33 -52 0
-33 -53 0
-33 -54 0
-49 -50 0
-49 -51 0
-49 -52 0
-49 -53 0
-49 -54 0
-50 -51 0
-50 -52 0
-50 -53 0
-50 -54 0
-51 -52 0
-51 -53 0
-51 -54 0
-52 -53 0
-52 -54 0
-53 -54 0
3 11 33 49 50 51 52 53 54 0
-18 -34 0
-18 -49 0
-18 -55 0
-18 -56 0
-18 -57 0
-18 -58 0
-18 -59 0
-18 -60 0
-34 -49 0
-34 -55 0
-34 -56 0
-34 -57 0
-34 -58 0
-34 -59 0
-34 -60 0
-49 -55 0
-49 -56 0
-49 -57 0
-49 -58 0
-49 -59 0
-49 -60 0
-55 -56 0
-55 -57 0
-55 -58 0
-55 -59 0
-55 -60 0
-56 -57 0
-56 -58 0
-56 -59 0
-56 -60 0
-57 -58 0
-57 -59 0
-57 -60 0
-58 -59 0
-58 -60 0
-59 -60 0
18 34 49 55 56 57 58 59 60 0
-43 -61 0
-43 -62 0
-43 -63 0
-43 -64 0
-43 -65 0
-43 -66 0
-43 -67 0
-61 -62 0
-61 -63 0
-61 -64 0
-61 -65 0
-61 -66 0
-61 -67 0
-62 -63 0
-62 -64 0
-62 -65 0
-62 -66 0
-62 -67 0
-63 -64 0
-63 -65 0
-63 -66 0
-63 -67 0
-64 -65 0
-64 -66 0
-64 -67 0
-65 -66 0
-65 -67 0
-66 -67 0
43 61 62 63 64 65 66 67 0
-19 -35 0
-19 -55 0
-19 -61 0
-19 -68 0
-19 -69 0
-19 -70 0
-19 -71 0
-19 -72 0
-19 -73 0
-19 -74 0
-19 -75 0
-35 -55 0
-35 -61 0
-35 -68 0
-35 -69 0
-35 -70 0
-35 -71 0
-35 -72 0
-35 -73 0
-35 -74 0
-35 -75 0
-55 -61 0
-55 -68 0
-55 -69 0
-55 -70 0
-55 -71 0
-55 -72 0
-55 -73 0
-55 -74 0
-55 -75 0
-61 -68 0
-61 -69 0
-61 -70 0
-61 -71 0
-61 -72 0
-61 -73 0
-61 -74 0
-61 -75 0
-68 -69 0
-68 -70 0
-68 -71 0
-68 -72 0
-68 -73 0
-68 -74 0
-68 -75 0
-69 -70 0
-69 -71 0
-69 -72 0
-69 -73 0
-69 -74 0
-69 -75 0
-70 -71 0
-70 -72 0
-70 -73 0
-70 -74 0
-70 -75 0
-71 -72 0
-71 -73 0
-71 -74 0
-71 -75 0
-72 -73 0
-72 -74 0
-72 -75 0
-73 -74 0
-73 -75 0
-74 -75 0
19 35 55 61 68 69 70 71 72 73 74 75 0
-36 -56 0
-36 -76 0
-36 -77 0
-36 -78 0
-36 -79 0
-56 -76 0
-56 -77 0
-56 -78 0
-56 -79 0
-76 -77 0
-76 -78 0
-76 -79 0
-77 -78 0
-77 -79 0
-78 -79 0
36 56 76 77 78 79 0
-12 -28 0
-12 -44 0
-12 -57 0
-12 -76 0
-12 -80 0
-12 -81 0
-12 -82 0
-12 -83 0
-12 -84 0
-12 -85 0
-12 -86 0
-12 -87 0
-12 -88 0
-28 -44 0
-28 -57 0
-28 -76 0
-28 -80 0
-28 -81 0
-28 -82 0
-28 -83 0
-28 -84 0
-28 -85 0
-28 -86 0
-28 -87 0
-28 -88 0
-44 -57 0
-44 -76 0
-44 -80 0
-44 -81 0
-44 -82 0
-44 -83 0
-44 -84 0
-44 -85 0
-44 -86 0
-44 -87 0
-44 -88 0
-57 -76 0
-57 -80 0
-57 -81 0
-57 -82 0
-57 -83 0
-57 -84 0
-57 -85 0
-57 -86 0
-57 -87 0
-57 -88 0
-76 -80 0
-76 -81 0
-76 -82 0
-76 -83 0
-76 -84 0
-76 -85 0
-76 -86 0
-76 -87 0
-76 -88 0
-80 -81 0
-80 -82 0
-80 -83 0
-80 -84 0
-80 -85 0
-80 -86 0
-80 -87 0
-80 -88 0
-81 -82 0
-81 -83 0
-81 -84 0
-81 -85 0
-81 -86 0
-81 -87 0
-81 -88 0
-82 -83 0
-82 -84 0
-82 -85 0
-82 -86 0
-82 -87 0
-82 -88 0
-83 -84 0
-83 -85 0
-83 -86 0
-83 -87 0
-83 -88 0
-84 -85 0
-84 -86 0
-84 -87 0
-84 -88 0
-85 -86 0
-85 -87 0
-85 -88 0
-86 -87 0
-86 -88 0
-87 -88 0
12 28 44 57 76 80 81 82 83 84 85 86 87 88 0
-62 -68 0
62 68 0
-50 -63 0
-50 -69 0
-50 -80 0
-50 -89 0
-50 -90 0
-50 -91 0
-50 -92 0
-63 -69 0
-63 -80 0
-63 -89 0
-63 -90 0
-63 -91 0
-63 -92 0
-69 -80 0
-69 -89 0
-69 -90 0
-69 -91 0
-69 -92 0
-80 -89 0
-80 -90 0
-80 -91 0
-80 -92 0
-89 -90 0
-89 -91 0
-89 -92 0
-90 -91 0
-90 -92 0
-91 -92 0
50 63 69 80 89 90 91 92 0
-4 -13 0
-4 -29 0
-4 -45 0
-4 -93 0
-4 -94 0
-4 -95 0
-13 -29 0
-13 -45 0
-13 -93 0
-13 -94 0
-13 -95 0
-29 -45 0
-29 -93 0
-29 -94 0
-29 -95 0
-45 -93 0
-45 -94 0
-45 -95 0
-93 -94 0
-93 -95 0
-94 -95 0
4 13 29 45 93 94 95 0
-77 -81 0
-77 -96 0
-77 -97 0
-77 -98 0
-81 -96 0
-81 -97 0
-81 -98 0
-96 -97 0
-96 -98 0
-97 -98 0
77 81 96 97 98 0
-37 -64 0
-37 -70 0
-37 -93 0
-37 -99 0
-37 -100 0
-37 -101 0
-37 -102 0
-64 -70 0
-64 -93 0
-64 -99 0
-64 -100 0
-64 -101 0
-64 -102 0
-70 -93 0
-70 -99 0
-70 -100 0
-70 -101 0
-70 -102 0
-93 -99 0
-93 -100 0
-93 -101 0
-93 -102 0
-99 -100 0
-99 -101 0
-99 -102 0
-100 -101 0
-100 -102 0
-101 -102 0
37 64 70 93 99 100 101 102 0
-5 -20 0
-5 -51 0
-5 -103 0
-5 -104 0
-5 -105 0
-20 -51 0
-20 -103 0
-20 -104 0
-20 -105 0
-51 -103 0
-51 -104 0
-51 -105 0
-103 -104 0
-103 -105 0
-104 -105 0
5 20 51 103 104 105 0
-52 -71 0
-52 -82 0
-52 -89 0
-52 -99 0
-52 -103 0
-52 -106 0
-52 -107 0
-52 -108 0
-71 -82 0
-71 -89 0
-71 -99 0
-71 -103 0
-71 -106 0
-71 -107 0
-71 -108 0
-82 -89 0
-82 -99 0
-82 -103 0
-82 -106 0
-82 -107 0
-82 -108 0
-89 -99 0
-89 -103 0
-89 -106 0
-89 -107 0
-89 -108 0
-99 -103 0
-99 -106 0
-99 -107 0
-99 -108 0
-103 -106 0
-103 -107 0
-103 -108 0
-106 -107 0
-106 -108 0
-107 -108 0
52 71 82 89 99 103 106 107 108 0
-6 -14 0
-6 -38 0
-6 -58 0
-6 -83 0
-6 -90 0
-6 -100 0
-6 -109 0
-6 -110 0
-14 -38 0
-14 -58 0
-14 -83 0
-14 -90 0
-14 -100 0
-14 -109 0
-14 -110 0
-38 -58 0
-38 -83 0
-38 -90 0
-38 -100 0
-38 -109 0
-38 -110 0
-58 -83 0
-58 -90 0
-58 -100 0
-58 -109 0
-58 -110 0
-83 -90 0
-83 -100 0
-83 -109 0
-83 -110 0
-90 -100 0
-90 -109 0
-90 -110 0
-100 -109 0
-100 -110 0
-109 -110 0
6 14 38 58 83 90 100 109 110 0
-30 -65 0
-30 -78 0
-30 -84 0
-30 -96 0
-30 -111 0
-30 -112 0
-65 -78 0
-65 -84 0
-65 -96 0
-65 -111 0
-65 -112 0
-78 -84 0
-78 -96 0
-78 -111 0
-78 -112 0
-84 -96 0
-84 -111 0
-84 -112 0
-96 -111 0
-96 -112 0
-111 -112 0
30 65 78 84 96 111 112 0
-21 -94 0
-21 -97 0
-21 -111 0
-21 -113 0
-21 -114 0
-94 -97 0
-94 -111 0
-94 -113 0
-94 -114 0
-97 -111 0
-97 -113 0
-97 -114 0
-111 -113 0
-111 -114 0
-113 -114 0
21 94 97 111 113 114 0
-15 -22 0
-15 -31 0
-15 -39 0
-15 -72 0
-15 -85 0
-15 -101 0
-15 -109 0
-15 -115 0
-15 -116 0
-22 -31 0
-22 -39 0
-22 -72 0
-22 -85 0
-22 -101 0
-22 -109 0
-22 -115 0
-22 -116 0
-31 -39 0
-31 -72 0
-31 -85 0
-31 -101 0
-31 -109 0
-31 -115 0
-31 -116 0
-39 -72 0
-39 -85 0
-39 -101 0
-39 -109 0
-39 -115 0
-39 -116 0
-72 -85 0
-72 -101 0
-72 -109 0
-72 -115 0
-72 -116 0
-85 -101 0
-85 -109 0
-85 -115 0
-85 -116 0
-101 -109 0
-101 -115 0
-101 -116 0
-109 -115 0
-109 -116 0
-115 -116 0
15 22 31 39 72 85 101 109 115 116 0
-32 -40 0
-32 -46 0
-32 -59 0
-32 -86 0
-32 -91 0
-32 -104 0
-32 -106 0
-32 -115 0
-32 -117 0
-32 -118 0
-40 -46 0
-40 -59 0
-40 -86 0
-40 -91 0
-40 -104 0
-40 -106 0
-40 -115 0
-40 -117 0
-40 -118 0
-46 -59 0
-46 -86 0
-46 -91 0
-46 -104 0
-46 -106 0
-46 -115 0
-46 -117 0
-46 -118 0
-59 -86 0
-59 -91 0
-59 -104 0
-59 -106 0
-59 -115 0
-59 -117 0
-59 -118 0
-86 -91 0
-86 -104 0
-86 -106 0
-86 -115 0
-86 -117 0
-86 -118 0
-91 -104 0
-91 -106 0
-91 -115 0
-91 -117 0
-91 -118 0
-104 -106 0
-104 -115 0
-104 -117 0
-104 -118 0
-106 -115 0
-106 -117 0
-106 -118 0
-115 -117 0
-115 -118 0
-117 -118 0
32 40 46 59 86 91 104 106 115 117 118 0
-7 -23 0
-7 -60 0
-7 -116 0
-7 -117 0
-7 -119 0
-23 -60 0
-23 -116 0
-23 -117 0
-23 -119 0
-60 -116 0
-60 -117 0
-60 -119 0
-116 -117 0
-116 -119 0
-117 -119 0
7 23 60 116 117 119 0
-8 -24 0
-8 -41 0
-8 -66 0
-8 -73 0
-8 -87 0
-8 -98 0
-8 -107 0
-8 -110 0
-8 -119 0
-8 -120 0
-24 -41 0
-24 -66 0
-24 -73 0
-24 -87 0
-24 -98 0
-24 -107 0
-24 -110 0
-24 -119 0
-24 -120 0
-41 -66 0
-41 -73 0
-41 -87 0
-41 -98 0
-41 -107 0
-41 -110 0
-41 -119 0
-41 -120 0
-66 -73 0
-66 -87 0
-66 -98 0
-66 -107 0
-66 -110 0
-66 -119 0
-66 -120 0
-73 -87 0
-73 -98 0
-73 -107 0
-73 -110 0
-73 -119 0
-73 -120 0
-87 -98 0
-87 -107 0
-87 -110 0
-87 -119 0
-87 -120 0
-98 -107 0
-98 -110 0
-98 -119 0
-98 -120 0
-107 -110 0
-107 -119 0
-107 -120 0
-110 -119 0
-110 -120 0
-119 -120 0
8 24 41 66 73 87 98 107 110 119 120 0
-25 -47 0
-25 -53 0
-25 -67 0
-25 -74 0
-25 -95 0
-25 -113 0
-47 -53 0
-47 -67 0
-47 -74 0
-47 -95 0
-47 -113 0
-53 -67 0
-53 -74 0
-53 -95 0
-53 -113 0
-67 -74 0
-67 -95 0
-67 -113 0
-74 -95 0
-74 -113 0
-95 -113 0
25 47 53 67 74 95 113 0
-9 -48 0
-9 -102 0
-9 -108 0
-9 -112 0
-9 -120 0
-48 -102 0
-48 -108 0
-48 -112 0
-48 -120 0
-102 -108 0
-102 -112 0
-102 -120 0
-108 -112 0
-108 -120 0
-112 -120 0
9 48 102 108 112 120 0
-26 -42 0
-26 -88 0
-26 -92 0
-26 -105 0
-42 -88 0
-42 -92 0
-42 -105 0
-88 -92 0
-88 -105 0
-92 -105 0
26 42 88 92 105 0
-16 -27 0
-16 -54 0
-16 -75 0
-16 -79 0
-16 -114 0
-16 -118 0
-27 -54 0
-27 -75 0
-27 -79 0
-27 -114 0
-27 -118 0
-54 -75 0
-54 -79 0
-54 -114 0
-54 -118 0
-75 -79 0
-75 -114 0
-75 -118 0
-79 -114 0
-79 -118 0
-114 -118 0
16 27 54 75 79 114 118 0